qbf_easy_train/easy_3502_SAT.qdimacs
p cnf 23 58
a 1 18 13 0
e 2 3 4 5 6 7 8 9 10 11 12 14 15 16 17 19 20 21 22 23 0
-1 2 -3 0
1 -2 -3 0
-1 -2 3 0
1 2 3 0
6 5 0
6 1 0
-5 -1 -6 0
7 -4 0
7 6 0
4 -6 -7 0
8 3 0
8 -7 0
-3 7 -8 0
-9 10 -11 0
9 -10 -11 0
-9 -10 11 0
9 10 11 0
-12 -6 -13 0
12 6 -13 0
-12 6 13 0
12 -6 13 0
14 -11 0
14 13 0
11 -13 -14 0
8 -14 -15 0
-8 14 -15 0
8 14 15 0
-8 -14 15 0
-16 -6 0
-16 5 0
6 -5 16 0
-16 -4 -17 0
16 4 -17 0
-16 4 17 0
16 -4 17 0
18 2 0
18 10 0
-2 -10 -18 0
-20 -19 0
-20 -10 0
19 10 20 0
-18 -20 -21 0
18 20 -21 0
-18 20 21 0
18 -20 21 0
22 17 0
22 21 0
-17 -21 -22 0
15 -22 -23 0
-15 22 -23 0
15 22 23 0
-15 -22 23 0
11 23 -4 0
7 -22 -1 -21 0
22 6 1 -7 11 5 14 0
15 12 23 20 -1 5 0
21 20 1 11 8 0
23 0
