sat_easy_train/easy_3502_SAT.dimacs
p cnf 106 341
-2 3 -4 0
2 -3 -4 0
-2 -3 4 0
2 3 4 0
1 4 -5 0
-1 -4 -5 0
1 -4 5 0
-1 4 5 0
-8 1 0
-8 2 0
-1 -2 8 0
-9 -7 0
-9 8 0
7 -8 9 0
-6 -9 -10 0
6 9 -10 0
-6 9 10 0
6 -9 10 0
12 11 0
12 -8 0
-11 8 -12 0
-13 10 0
-13 12 0
-10 -12 13 0
14 -5 0
14 13 0
5 -13 -14 0
16 7 -17 0
-16 -7 -17 0
16 -7 17 0
-16 7 17 0
18 17 0
18 -11 0
-17 11 -18 0
-19 18 0
-19 -2 0
-18 2 19 0
-20 15 0
-20 -19 0
-15 19 20 0
-14 -20 -21 0
14 20 -21 0
-14 20 21 0
14 -20 21 0
-16 22 -23 0
16 -22 -23 0
-16 -22 23 0
16 22 23 0
25 23 0
25 24 0
-23 -24 -25 0
26 4 0
26 -3 0
-4 3 -26 0
-26 20 -27 0
26 -20 -27 0
-26 -20 27 0
26 20 27 0
-28 -25 0
-28 -27 0
25 27 28 0
29 9 0
29 11 0
-9 -11 -29 0
-22 -29 -30 0
22 29 -30 0
-22 29 30 0
22 -29 30 0
-28 30 -31 0
28 -30 -31 0
-28 -30 31 0
28 30 31 0
-32 -10 0
-32 6 0
10 -6 32 0
-33 -31 0
-33 32 0
31 -32 33 0
-34 21 0
-34 33 0
-21 -33 34 0
-35 16 -36 0
35 -16 -36 0
-35 -16 36 0
35 16 36 0
-38 -7 0
-38 -24 0
7 24 38 0
-39 37 0
-39 38 0
-37 -38 39 0
40 -36 0
40 39 0
36 -39 -40 0
26 -40 -41 0
-26 40 -41 0
26 40 41 0
-26 -40 41 0
-42 41 0
-42 -17 0
-41 17 42 0
-43 -4 0
-43 3 0
4 -3 43 0
-44 -15 0
-44 -40 0
15 40 44 0
-43 -44 -45 0
43 44 -45 0
-43 44 45 0
43 -44 45 0
-42 -45 -46 0
42 45 -46 0
-42 45 46 0
42 -45 46 0
16 -22 -47 0
-16 22 -47 0
16 22 47 0
-16 -22 47 0
-48 6 0
-48 47 0
-6 -47 48 0
49 -15 0
49 -48 0
15 48 -49 0
50 46 0
50 -49 0
-46 49 -50 0
9 37 -51 0
-9 -37 -51 0
9 -37 51 0
-9 37 51 0
52 -50 0
52 51 0
50 -51 -52 0
53 34 0
53 -52 0
-34 52 -53 0
55 54 0
55 -37 0
-54 37 -55 0
-56 -53 0
-56 55 0
53 -55 56 0
-57 -8 0
-57 54 0
8 -54 57 0
-59 23 0
-59 -58 0
-23 58 59 0
-60 -6 0
-60 38 0
6 -38 60 0
61 54 0
61 -20 0
-54 20 -61 0
62 60 0
62 61 0
-60 -61 -62 0
59 62 -63 0
-59 -62 -63 0
59 -62 63 0
-59 62 63 0
-64 -18 0
-64 -6 0
18 6 64 0
-66 64 0
-66 -65 0
-64 65 66 0
-63 66 -67 0
63 -66 -67 0
-63 -66 67 0
63 66 67 0
68 -38 0
68 -11 0
38 11 -68 0
69 67 0
69 68 0
-67 -68 -69 0
-70 -57 0
-70 -69 0
57 69 70 0
71 -58 0
71 -2 0
58 2 -71 0
-72 -26 -73 0
72 26 -73 0
-72 26 73 0
72 -26 73 0
74 -71 0
74 73 0
71 -73 -74 0
43 58 -75 0
-43 -58 -75 0
43 -58 75 0
-43 58 75 0
76 37 0
76 11 0
-37 -11 -76 0
-26 76 -77 0
26 -76 -77 0
-26 -76 77 0
26 76 77 0
78 -77 0
78 24 0
77 -24 -78 0
79 15 0
79 4 0
-15 -4 -79 0
-78 79 -80 0
78 -79 -80 0
-78 -79 80 0
78 79 80 0
-81 -75 0
-81 -80 0
75 80 81 0
82 74 0
82 -81 0
-74 81 -82 0
-70 -82 -83 0
70 82 -83 0
-70 82 83 0
70 -82 83 0
-84 12 0
-84 -15 0
-12 15 84 0
-85 -83 0
-85 -84 0
83 84 85 0
41 18 -86 0
-41 -18 -86 0
41 -18 86 0
-41 18 86 0
44 -86 -87 0
-44 86 -87 0
44 86 87 0
-44 -86 87 0
88 4 0
88 54 0
-4 -54 -88 0
89 -76 0
89 88 0
76 -88 -89 0
-90 -87 0
-90 89 0
87 -89 90 0
-91 17 0
-91 15 0
-17 -15 91 0
92 90 0
92 -91 0
-90 91 -92 0
93 8 0
93 -12 0
-8 12 -93 0
94 -10 0
94 14 0
10 -14 -94 0
95 93 0
95 -94 0
-93 94 -95 0
96 7 0
96 -10 0
-7 10 -96 0
97 -29 0
97 -47 0
29 47 -97 0
98 96 0
98 -97 0
-96 97 -98 0
-99 12 0
-99 23 0
-12 -23 99 0
99 22 -100 0
-99 -22 -100 0
99 -22 100 0
-99 22 100 0
-101 100 0
-101 -3 0
-100 3 101 0
-102 98 0
-102 -101 0
-98 101 102 0
103 95 0
103 -102 0
-95 102 -103 0
104 -92 0
104 -103 0
92 103 -104 0
85 -104 -105 0
-85 104 -105 0
85 104 105 0
-85 -104 105 0
-106 -56 0
-106 -105 0
56 105 106 0
13 19 -5 -91 -37 0
-19 -2 -6 43 0
-38 76 37 0
53 4 56 -25 -72 0
39 -48 -78 -64 68 0
-39 30 -13 0
45 51 0
78 58 0
-76 100 -105 10 0
-77 -79 -69 92 23 0
-60 -42 38 -99 -68 32 0
-3 47 0
38 -86 29 -28 0
-47 -101 103 24 -48 10 0
-54 -62 -87 0
62 9 30 61 91 50 0
-39 97 98 0
46 64 -65 86 104 0
-59 99 84 0
-49 74 11 78 0
75 79 0
-51 92 -15 0
46 -71 -61 97 0
10 -36 78 0
38 0
-49 59 35 80 0
-69 9 0
-55 78 0
68 38 -100 0
-100 46 95 96 0
16 -94 -27 2 0
61 -49 73 -4 3 0
79 -75 99 87 0
44 41 0
-51 21 85 17 52 86 0
80 11 -84 -53 -32 0
8 93 -65 -76 -41 0
-27 16 -36 22 52 0
-20 -26 85 0
19 74 -102 48 9 4 0
-65 -61 -52 12 -19 -76 0
63 85 -67 -35 0
-52 65 -9 -5 11 2 0
46 103 -57 0
106 0
